param n := 2;

param m := 2;

param K := 50;

param a :=
1 	 0.239848
2 	 0.493770
;
 param A :=
[1, *, *]:  1	2	:=
1	0.239911	-0.686417	
2	0.657962	-0.962848	

[2, *, *]:  1	2	:=
1	-0.859956	0.212659	
2	-0.027310	0.137703	
;